c DIMACS CONVERSION: ex1.v
c
c Number of Variable = 0
c Number of Clauses = 0
c PRINT VARIABLE LIST
c   clock
c   A
c   Y
c   S0
c   S1
c   X1
c   NS0
c   NS1
c
p cnf 0 0
c Initial Condition
-4 0
-5 0
c
c FINAL Condition 
-1 0
0 0
c END OF DIMACS CNF